c parsing input formula with 32 variables and 33 clauses
c WARNING: backward mode ignores deletion of (pseudo) unit clause [-1879043794] -32 0
c finished parsing
c UNSAT via unit propagation on the input instance
c 33 of 33 clauses in core                            
c 1 of 33 lemmas in core using 33 resolution steps
c 0 RAT lemmas in core; 0 redundant literals in core lemmas
s VERIFIED
c verification time: 0.054 seconds
